(declare-fun temp540_1 () (_ BitVec 64))
(declare-fun var342198 () (_ BitVec 64))
(declare-fun temp540_3 () (_ BitVec 64))
(declare-fun temp540_2 () (_ BitVec 64))
(declare-fun temp540_5 () (_ BitVec 64))
(declare-fun temp540_4 () (_ BitVec 64))
(declare-fun var1586267 () (_ BitVec 64))
(declare-fun temp540_6 () (_ BitVec 64))
(declare-fun var1586268 () (_ BitVec 64))
(declare-fun var1586345 () (_ BitVec 64))
(declare-fun temp540_8 () (_ BitVec 64))
(declare-fun temp540_7 () (_ BitVec 64))
(declare-fun temp540_10 () (_ BitVec 64))
(declare-fun temp540_9 () (_ BitVec 64))
(declare-fun var3355739 () (_ BitVec 64))
(declare-fun temp540_11 () (_ BitVec 64))
(declare-fun var3355740 () (_ BitVec 64))
(declare-fun var3355817 () (_ BitVec 64))
(declare-fun temp540_13 () (_ BitVec 64))
(declare-fun temp540_12 () (_ BitVec 64))
(declare-fun var4139873 () (_ BitVec 64))
(declare-fun temp540_14 () (_ BitVec 64))
(declare-fun var4204657 () (_ BitVec 64))
(declare-fun temp540_16 () (_ BitVec 64))
(declare-fun temp540_15 () (_ BitVec 64))
(declare-fun temp540_18 () (_ BitVec 64))
(declare-fun temp540_17 () (_ BitVec 64))
(declare-fun var5190747 () (_ BitVec 64))
(declare-fun temp540_19 () (_ BitVec 64))
(declare-fun var5190748 () (_ BitVec 64))
(declare-fun var5190825 () (_ BitVec 64))
(declare-fun temp540_21 () (_ BitVec 64))
(declare-fun temp540_20 () (_ BitVec 64))
(declare-fun var5974881 () (_ BitVec 64))
(declare-fun var1586516 () (_ BitVec 64))
(declare-fun temp540_22 () (_ BitVec 64))
(declare-fun var1586517 () (_ BitVec 64))
(declare-fun temp540_23 () (_ BitVec 64))
(assert (= temp540_1 #x0000000000000000))
(assert (= var342198 temp540_1))
(assert (= temp540_3 #x0000000000000000))
(assert (= temp540_2 temp540_3))
(assert (= temp540_5 #x0000000000000001))
(assert (= temp540_4 temp540_5))
(assert (= var1586267 var342198))
(assert (= temp540_6 #x0000000000000000))
(assert (= var1586268 temp540_6))
(assert (= var1586345 var1586268))
(assert (= temp540_8 #x0000000000000000))
(assert (= temp540_7 temp540_8))
(assert (= temp540_10 #x0000000000000001))
(assert (= temp540_9 temp540_10))
(assert (= var3355739 var1586267))
(assert (= temp540_11 #x0000000000000000))
(assert (= var3355740 temp540_11))
(assert (= var3355817 var3355740))
(assert (= temp540_13 #x0000000000000001))
(assert (= temp540_12 temp540_13))
(assert (= var4139873 var3355739))
(assert (= temp540_14 #x0000000000000000))
(assert (= var4204657 temp540_14))
(assert (= temp540_16 #x0000000000000000))
(assert (= temp540_15 temp540_16))
(assert (= temp540_18 #x0000000000000001))
(assert (= temp540_17 temp540_18))
(assert (= var5190747 var1586267))
(assert (= temp540_19 #x0000000000000000))
(assert (= var5190748 temp540_19))
(assert (= var5190825 var5190748))
(assert (= temp540_21 #x0000000000000001))
(assert (= temp540_20 temp540_21))
(assert (= var5974881 var5190747))
(assert (= var1586516 var1586345))
(assert (= temp540_22 #x0000000000000000))
(assert (= var1586517
   (ite (= var1586516 temp540_22) #x0000000000000001 #x0000000000000000)))
(assert (= temp540_23 #x0000000000000001))
(assert (= var1586517 temp540_23))
(model-add temp540_1 () (_ BitVec 64) #x0000000000000000)
(model-add var342198 () (_ BitVec 64) #x0000000000000000)
(model-add temp540_3 () (_ BitVec 64) #x0000000000000000)
(model-add temp540_2 () (_ BitVec 64) #x0000000000000000)
(model-add temp540_5 () (_ BitVec 64) #x0000000000000001)
(model-add temp540_4 () (_ BitVec 64) #x0000000000000001)
(model-add var1586267 () (_ BitVec 64) #x0000000000000000)
(model-add temp540_6 () (_ BitVec 64) #x0000000000000000)
(model-add var1586268 () (_ BitVec 64) #x0000000000000000)
(model-add var1586345 () (_ BitVec 64) #x0000000000000000)
(model-add temp540_8 () (_ BitVec 64) #x0000000000000000)
(model-add temp540_7 () (_ BitVec 64) #x0000000000000000)
(model-add temp540_10 () (_ BitVec 64) #x0000000000000001)
(model-add temp540_9 () (_ BitVec 64) #x0000000000000001)
(model-add var3355739 () (_ BitVec 64) #x0000000000000000)
(model-add temp540_11 () (_ BitVec 64) #x0000000000000000)
(model-add var3355740 () (_ BitVec 64) #x0000000000000000)
(model-add var3355817 () (_ BitVec 64) #x0000000000000000)
(model-add temp540_13 () (_ BitVec 64) #x0000000000000001)
(model-add temp540_12 () (_ BitVec 64) #x0000000000000001)
(model-add var4139873 () (_ BitVec 64) #x0000000000000000)
(model-add temp540_14 () (_ BitVec 64) #x0000000000000000)
(model-add var4204657 () (_ BitVec 64) #x0000000000000000)
(model-add temp540_16 () (_ BitVec 64) #x0000000000000000)
(model-add temp540_15 () (_ BitVec 64) #x0000000000000000)
(model-add temp540_18 () (_ BitVec 64) #x0000000000000001)
(model-add temp540_17 () (_ BitVec 64) #x0000000000000001)
(model-add var5190747 () (_ BitVec 64) #x0000000000000000)
(model-add temp540_19 () (_ BitVec 64) #x0000000000000000)
(model-add var5190748 () (_ BitVec 64) #x0000000000000000)
(model-add var5190825 () (_ BitVec 64) #x0000000000000000)
(model-add temp540_21 () (_ BitVec 64) #x0000000000000001)
(model-add temp540_20 () (_ BitVec 64) #x0000000000000001)
(model-add var5974881 () (_ BitVec 64) #x0000000000000000)
(model-add var1586516 () (_ BitVec 64) #x0000000000000000)
(model-add temp540_22 () (_ BitVec 64) #x0000000000000000)
(model-add var1586517 () (_ BitVec 64) #x0000000000000001)
(model-add temp540_23 () (_ BitVec 64) #x0000000000000001)





